BAYES
400
2 2 2 2 2 2 2 2 2 2 2 2 2 2 2 2 2 2 2 2 2 2 2 2 2 2 2 2 2 2 2 2 2 2 2 2 2 2 2 2 2 2 2 2 2 2 2 2 2 2 2 2 2 2 2 2 2 2 2 2 2 2 2 2 2 2 2 2 2 2 2 2 2 2 2 2 2 2 2 2 2 2 2 2 2 2 2 2 2 2 2 2 2 2 2 2 2 2 2 2 2 2 2 2 2 2 2 2 2 2 2 2 2 2 2 2 2 2 2 2 2 2 2 2 2 2 2 2 2 2 2 2 2 2 2 2 2 2 2 2 2 2 2 2 2 2 2 2 2 2 2 2 2 2 2 2 2 2 2 2 2 2 2 2 2 2 2 2 2 2 2 2 2 2 2 2 2 2 2 2 2 2 2 2 2 2 2 2 2 2 2 2 2 2 2 2 2 2 2 2 2 2 2 2 2 2 2 2 2 2 2 2 2 2 2 2 2 2 2 2 2 2 2 2 2 2 2 2 2 2 2 2 2 2 2 2 2 2 2 2 2 2 2 2 2 2 2 2 2 2 2 2 2 2 2 2 2 2 2 2 2 2 2 2 2 2 2 2 2 2 2 2 2 2 2 2 2 2 2 2 2 2 2 2 2 2 2 2 2 2 2 2 2 2 2 2 2 2 2 2 2 2 2 2 2 2 2 2 2 2 2 2 2 2 2 2 2 2 2 2 2 2 2 2 2 2 2 2 2 2 2 2 2 2 2 2 2 2 2 2 2 2 2 2 2 2 2 2 2 2 2 2 2 2 2 2 2 2 2 2 2 2 2 2 2 2 2 2 2 2 2 2 2 2 2 2 2 2 2 2 2 2 2 2 2 2 2 2 2 2 2 2 2 2 2 2 2 2 2 2
400
1 0
2 0 1
2 1 2
2 2 3
2 3 4
2 4 5
2 5 6
2 6 7
2 7 8
2 8 9
2 9 10
2 10 11
2 11 12
2 12 13
2 13 14
2 14 15
2 15 16
2 16 17
2 17 18
2 18 19
2 0 20
3 1 20 21
3 2 21 22
3 3 22 23
3 4 23 24
3 5 24 25
3 6 25 26
3 7 26 27
3 8 27 28
3 9 28 29
3 10 29 30
3 11 30 31
3 12 31 32
3 13 32 33
3 14 33 34
3 15 34 35
3 16 35 36
3 17 36 37
3 18 37 38
3 19 38 39
2 20 40
3 21 40 41
3 22 41 42
3 23 42 43
3 24 43 44
3 25 44 45
3 26 45 46
3 27 46 47
3 28 47 48
3 29 48 49
3 30 49 50
3 31 50 51
3 32 51 52
3 33 52 53
3 34 53 54
3 35 54 55
3 36 55 56
3 37 56 57
3 38 57 58
3 39 58 59
2 40 60
3 41 60 61
3 42 61 62
3 43 62 63
3 44 63 64
3 45 64 65
3 46 65 66
3 47 66 67
3 48 67 68
3 49 68 69
3 50 69 70
3 51 70 71
3 52 71 72
3 53 72 73
3 54 73 74
3 55 74 75
3 56 75 76
3 57 76 77
3 58 77 78
3 59 78 79
2 60 80
3 61 80 81
3 62 81 82
3 63 82 83
3 64 83 84
3 65 84 85
3 66 85 86
3 67 86 87
3 68 87 88
3 69 88 89
3 70 89 90
3 71 90 91
3 72 91 92
3 73 92 93
3 74 93 94
3 75 94 95
3 76 95 96
3 77 96 97
3 78 97 98
3 79 98 99
2 80 100
3 81 100 101
3 82 101 102
3 83 102 103
3 84 103 104
3 85 104 105
3 86 105 106
3 87 106 107
3 88 107 108
3 89 108 109
3 90 109 110
3 91 110 111
3 92 111 112
3 93 112 113
3 94 113 114
3 95 114 115
3 96 115 116
3 97 116 117
3 98 117 118
3 99 118 119
2 100 120
3 101 120 121
3 102 121 122
3 103 122 123
3 104 123 124
3 105 124 125
3 106 125 126
3 107 126 127
3 108 127 128
3 109 128 129
3 110 129 130
3 111 130 131
3 112 131 132
3 113 132 133
3 114 133 134
3 115 134 135
3 116 135 136
3 117 136 137
3 118 137 138
3 119 138 139
2 120 140
3 121 140 141
3 122 141 142
3 123 142 143
3 124 143 144
3 125 144 145
3 126 145 146
3 127 146 147
3 128 147 148
3 129 148 149
3 130 149 150
3 131 150 151
3 132 151 152
3 133 152 153
3 134 153 154
3 135 154 155
3 136 155 156
3 137 156 157
3 138 157 158
3 139 158 159
2 140 160
3 141 160 161
3 142 161 162
3 143 162 163
3 144 163 164
3 145 164 165
3 146 165 166
3 147 166 167
3 148 167 168
3 149 168 169
3 150 169 170
3 151 170 171
3 152 171 172
3 153 172 173
3 154 173 174
3 155 174 175
3 156 175 176
3 157 176 177
3 158 177 178
3 159 178 179
2 160 180
3 161 180 181
3 162 181 182
3 163 182 183
3 164 183 184
3 165 184 185
3 166 185 186
3 167 186 187
3 168 187 188
3 169 188 189
3 170 189 190
3 171 190 191
3 172 191 192
3 173 192 193
3 174 193 194
3 175 194 195
3 176 195 196
3 177 196 197
3 178 197 198
3 179 198 199
2 180 200
3 181 200 201
3 182 201 202
3 183 202 203
3 184 203 204
3 185 204 205
3 186 205 206
3 187 206 207
3 188 207 208
3 189 208 209
3 190 209 210
3 191 210 211
3 192 211 212
3 193 212 213
3 194 213 214
3 195 214 215
3 196 215 216
3 197 216 217
3 198 217 218
3 199 218 219
2 200 220
3 201 220 221
3 202 221 222
3 203 222 223
3 204 223 224
3 205 224 225
3 206 225 226
3 207 226 227
3 208 227 228
3 209 228 229
3 210 229 230
3 211 230 231
3 212 231 232
3 213 232 233
3 214 233 234
3 215 234 235
3 216 235 236
3 217 236 237
3 218 237 238
3 219 238 239
2 220 240
3 221 240 241
3 222 241 242
3 223 242 243
3 224 243 244
3 225 244 245
3 226 245 246
3 227 246 247
3 228 247 248
3 229 248 249
3 230 249 250
3 231 250 251
3 232 251 252
3 233 252 253
3 234 253 254
3 235 254 255
3 236 255 256
3 237 256 257
3 238 257 258
3 239 258 259
2 240 260
3 241 260 261
3 242 261 262
3 243 262 263
3 244 263 264
3 245 264 265
3 246 265 266
3 247 266 267
3 248 267 268
3 249 268 269
3 250 269 270
3 251 270 271
3 252 271 272
3 253 272 273
3 254 273 274
3 255 274 275
3 256 275 276
3 257 276 277
3 258 277 278
3 259 278 279
2 260 280
3 261 280 281
3 262 281 282
3 263 282 283
3 264 283 284
3 265 284 285
3 266 285 286
3 267 286 287
3 268 287 288
3 269 288 289
3 270 289 290
3 271 290 291
3 272 291 292
3 273 292 293
3 274 293 294
3 275 294 295
3 276 295 296
3 277 296 297
3 278 297 298
3 279 298 299
2 280 300
3 281 300 301
3 282 301 302
3 283 302 303
3 284 303 304
3 285 304 305
3 286 305 306
3 287 306 307
3 288 307 308
3 289 308 309
3 290 309 310
3 291 310 311
3 292 311 312
3 293 312 313
3 294 313 314
3 295 314 315
3 296 315 316
3 297 316 317
3 298 317 318
3 299 318 319
2 300 320
3 301 320 321
3 302 321 322
3 303 322 323
3 304 323 324
3 305 324 325
3 306 325 326
3 307 326 327
3 308 327 328
3 309 328 329
3 310 329 330
3 311 330 331
3 312 331 332
3 313 332 333
3 314 333 334
3 315 334 335
3 316 335 336
3 317 336 337
3 318 337 338
3 319 338 339
2 320 340
3 321 340 341
3 322 341 342
3 323 342 343
3 324 343 344
3 325 344 345
3 326 345 346
3 327 346 347
3 328 347 348
3 329 348 349
3 330 349 350
3 331 350 351
3 332 351 352
3 333 352 353
3 334 353 354
3 335 354 355
3 336 355 356
3 337 356 357
3 338 357 358
3 339 358 359
2 340 360
3 341 360 361
3 342 361 362
3 343 362 363
3 344 363 364
3 345 364 365
3 346 365 366
3 347 366 367
3 348 367 368
3 349 368 369
3 350 369 370
3 351 370 371
3 352 371 372
3 353 372 373
3 354 373 374
3 355 374 375
3 356 375 376
3 357 376 377
3 358 377 378
3 359 378 379
2 360 380
3 361 380 381
3 362 381 382
3 363 382 383
3 364 383 384
3 365 384 385
3 366 385 386
3 367 386 387
3 368 387 388
3 369 388 389
3 370 389 390
3 371 390 391
3 372 391 392
3 373 392 393
3 374 393 394
3 375 394 395
3 376 395 396
3 377 396 397
3 378 397 398
3 379 398 399

2
0.97608 0.0239196
4
1.0 0.0 0.0 1.0
4
1.0 0.0 0.0 1.0
4
0.0 1.0 1.0 0.0
4
1.0 0.0 0.0 1.0
4
0.0 1.0 1.0 0.0
4
0.0 1.0 1.0 0.0
4
0.0 1.0 1.0 0.0
4
0.0 1.0 1.0 0.0
4
0.0 1.0 1.0 0.0
4
0.0 1.0 1.0 0.0
4
1.0 0.0 0.0 1.0
4
0.0 1.0 1.0 0.0
4
0.834582 0.165418 0.589539 0.410461
4
0.0 1.0 1.0 0.0
4
1.0 0.0 0.0 1.0
4
1.0 0.0 0.0 1.0
4
0.0 1.0 1.0 0.0
4
1.0 0.0 0.0 1.0
4
1.0 0.0 0.0 1.0
4
1.0 0.0 0.0 1.0
8
0.0 1.0 0.0 1.0 1.0 0.0 0.0 1.0
8
0.0 1.0 1.0 0.0 1.0 0.0 1.0 0.0
8
0.0 1.0 1.0 0.0 0.0 1.0 1.0 0.0
8
1.0 0.0 1.0 0.0 1.0 0.0 0.0 1.0
8
0.0 1.0 1.0 0.0 0.0 1.0 0.0 1.0
8
1.0 0.0 1.0 0.0 0.0 1.0 1.0 0.0
8
0.0 1.0 1.0 0.0 1.0 0.0 1.0 0.0
8
0.959109 0.0408913 0.445605 0.554395 0.267788 0.732212 0.116492 0.883508
8
0.0 1.0 1.0 0.0 0.0 1.0 0.0 1.0
8
1.0 0.0 1.0 0.0 0.0 1.0 0.0 1.0
8
0.285719 0.714281 0.773286 0.226714 0.240866 0.759134 0.424129 0.575871
8
0.0 1.0 1.0 0.0 1.0 0.0 0.0 1.0
8
0.0 1.0 1.0 0.0 0.0 1.0 0.0 1.0
8
0.0 1.0 1.0 0.0 1.0 0.0 1.0 0.0
8
1.0 0.0 1.0 0.0 1.0 0.0 0.0 1.0
8
1.0 0.0 0.0 1.0 1.0 0.0 1.0 0.0
8
1.0 0.0 0.0 1.0 0.0 1.0 1.0 0.0
8
1.0 0.0 0.0 1.0 0.0 1.0 0.0 1.0
8
0.0 1.0 0.0 1.0 0.0 1.0 1.0 0.0
4
1.0 0.0 0.0 1.0
8
0.0 1.0 0.0 1.0 0.0 1.0 1.0 0.0
8
1.0 0.0 1.0 0.0 0.0 1.0 0.0 1.0
8
1.0 0.0 1.0 0.0 1.0 0.0 0.0 1.0
8
1.0 0.0 0.0 1.0 0.0 1.0 0.0 1.0
8
1.0 0.0 0.0 1.0 1.0 0.0 1.0 0.0
8
1.0 0.0 0.0 1.0 1.0 0.0 0.0 1.0
8
0.0 1.0 0.0 1.0 1.0 0.0 0.0 1.0
8
0.0 1.0 1.0 0.0 0.0 1.0 0.0 1.0
8
1.0 0.0 1.0 0.0 1.0 0.0 0.0 1.0
8
0.0 1.0 0.0 1.0 1.0 0.0 1.0 0.0
8
1.0 0.0 0.0 1.0 0.0 1.0 0.0 1.0
8
0.846294 0.153706 0.358944 0.641056 0.561248 0.438752 0.836376 0.163624
8
1.0 0.0 0.0 1.0 1.0 0.0 0.0 1.0
8
0.0 1.0 1.0 0.0 0.0 1.0 1.0 0.0
8
0.0 1.0 0.0 1.0 1.0 0.0 1.0 0.0
8
0.0 1.0 1.0 0.0 0.0 1.0 0.0 1.0
8
0.0 1.0 1.0 0.0 1.0 0.0 1.0 0.0
8
1.0 0.0 0.0 1.0 0.0 1.0 0.0 1.0
8
0.430209 0.569791 0.0544863 0.945514 0.703899 0.296101 0.120337 0.879663
4
0.0 1.0 1.0 0.0
8
0.0 1.0 0.0 1.0 1.0 0.0 0.0 1.0
8
1.0 0.0 0.0 1.0 1.0 0.0 1.0 0.0
8
0.0 1.0 0.0 1.0 0.0 1.0 1.0 0.0
8
0.0 1.0 1.0 0.0 1.0 0.0 1.0 0.0
8
1.0 0.0 1.0 0.0 0.0 1.0 0.0 1.0
8
0.0 1.0 1.0 0.0 0.0 1.0 0.0 1.0
8
0.0 1.0 1.0 0.0 1.0 0.0 1.0 0.0
8
0.0 1.0 1.0 0.0 1.0 0.0 1.0 0.0
8
1.0 0.0 1.0 0.0 1.0 0.0 0.0 1.0
8
1.0 0.0 1.0 0.0 1.0 0.0 0.0 1.0
8
1.0 0.0 0.0 1.0 1.0 0.0 1.0 0.0
8
1.0 0.0 1.0 0.0 0.0 1.0 0.0 1.0
8
1.0 0.0 0.0 1.0 0.0 1.0 0.0 1.0
8
0.0 1.0 0.0 1.0 1.0 0.0 1.0 0.0
8
1.0 0.0 0.0 1.0 1.0 0.0 0.0 1.0
8
0.0 1.0 1.0 0.0 1.0 0.0 1.0 0.0
8
0.0 1.0 0.0 1.0 0.0 1.0 1.0 0.0
8
0.0 1.0 1.0 0.0 1.0 0.0 1.0 0.0
8
0.0 1.0 0.0 1.0 1.0 0.0 0.0 1.0
4
1.0 0.0 0.0 1.0
8
0.586601 0.413399 0.79026 0.20974 0.00459556 0.995404 0.448026 0.551974
8
1.0 0.0 0.0 1.0 0.0 1.0 0.0 1.0
8
0.0 1.0 1.0 0.0 1.0 0.0 0.0 1.0
8
0.0 1.0 1.0 0.0 0.0 1.0 1.0 0.0
8
0.0 1.0 1.0 0.0 0.0 1.0 0.0 1.0
8
0.0 1.0 0.0 1.0 1.0 0.0 0.0 1.0
8
0.0 1.0 1.0 0.0 1.0 0.0 1.0 0.0
8
0.0 1.0 0.0 1.0 0.0 1.0 1.0 0.0
8
1.0 0.0 1.0 0.0 0.0 1.0 0.0 1.0
8
1.0 0.0 0.0 1.0 1.0 0.0 1.0 0.0
8
1.0 0.0 1.0 0.0 1.0 0.0 0.0 1.0
8
1.0 0.0 1.0 0.0 0.0 1.0 1.0 0.0
8
1.0 0.0 0.0 1.0 0.0 1.0 0.0 1.0
8
0.0 1.0 1.0 0.0 0.0 1.0 1.0 0.0
8
1.0 0.0 1.0 0.0 0.0 1.0 1.0 0.0
8
1.0 0.0 0.0 1.0 0.0 1.0 0.0 1.0
8
1.0 0.0 0.0 1.0 1.0 0.0 0.0 1.0
8
0.0 1.0 1.0 0.0 1.0 0.0 1.0 0.0
8
1.0 0.0 0.0 1.0 0.0 1.0 1.0 0.0
4
1.0 0.0 0.0 1.0
8
1.0 0.0 0.0 1.0 1.0 0.0 1.0 0.0
8
1.0 0.0 0.0 1.0 1.0 0.0 0.0 1.0
8
0.726091 0.273909 0.501239 0.498761 0.0602709 0.939729 0.348678 0.651322
8
0.673128 0.326872 0.791896 0.208104 0.02976 0.97024 0.108815 0.891185
8
1.0 0.0 1.0 0.0 1.0 0.0 0.0 1.0
8
0.0 1.0 0.0 1.0 1.0 0.0 0.0 1.0
8
0.0 1.0 0.0 1.0 1.0 0.0 1.0 0.0
8
0.39139 0.60861 0.9194 0.0805996 0.458777 0.541223 0.300375 0.699625
8
1.0 0.0 0.0 1.0 1.0 0.0 0.0 1.0
8
1.0 0.0 0.0 1.0 1.0 0.0 1.0 0.0
8
1.0 0.0 1.0 0.0 1.0 0.0 0.0 1.0
8
1.0 0.0 0.0 1.0 0.0 1.0 0.0 1.0
8
0.0 1.0 1.0 0.0 1.0 0.0 1.0 0.0
8
0.774172 0.225828 0.975808 0.0241917 0.894354 0.105646 0.232949 0.767051
8
1.0 0.0 1.0 0.0 0.0 1.0 0.0 1.0
8
0.802615 0.197385 0.277672 0.722328 0.276804 0.723196 0.557191 0.442809
8
0.301588 0.698412 0.761436 0.238564 0.393796 0.606204 0.141068 0.858932
8
0.565983 0.434017 0.448782 0.551218 0.450305 0.549695 0.319288 0.680712
8
1.0 0.0 0.0 1.0 0.0 1.0 0.0 1.0
4
0.0 1.0 1.0 0.0
8
0.0 1.0 1.0 0.0 1.0 0.0 1.0 0.0
8
0.0 1.0 0.0 1.0 1.0 0.0 1.0 0.0
8
0.430723 0.569277 0.121552 0.878448 0.949377 0.050623 0.732311 0.267689
8
1.0 0.0 1.0 0.0 0.0 1.0 1.0 0.0
8
1.0 0.0 1.0 0.0 1.0 0.0 0.0 1.0
8
1.0 0.0 0.0 1.0 1.0 0.0 1.0 0.0
8
0.503182 0.496818 0.408904 0.591096 0.59965 0.40035 0.510727 0.489273
8
0.0 1.0 0.0 1.0 0.0 1.0 1.0 0.0
8
1.0 0.0 0.0 1.0 1.0 0.0 0.0 1.0
8
0.458154 0.541846 0.801794 0.198206 0.77768 0.22232 0.36731 0.63269
8
0.0 1.0 0.0 1.0 1.0 0.0 0.0 1.0
8
1.0 0.0 0.0 1.0 1.0 0.0 0.0 1.0
8
1.0 0.0 1.0 0.0 0.0 1.0 0.0 1.0
8
0.0 1.0 0.0 1.0 1.0 0.0 0.0 1.0
8
0.0 1.0 1.0 0.0 0.0 1.0 0.0 1.0
8
1.0 0.0 1.0 0.0 0.0 1.0 1.0 0.0
8
0.0 1.0 1.0 0.0 0.0 1.0 1.0 0.0
8
1.0 0.0 1.0 0.0 0.0 1.0 0.0 1.0
8
1.0 0.0 1.0 0.0 0.0 1.0 1.0 0.0
4
0.0 1.0 1.0 0.0
8
0.107107 0.892893 0.38712 0.61288 0.149497 0.850503 0.155615 0.844385
8
1.0 0.0 1.0 0.0 1.0 0.0 0.0 1.0
8
0.113853 0.886147 0.289583 0.710417 0.813928 0.186072 0.926684 0.0733157
8
0.357473 0.642527 0.109639 0.890361 0.374736 0.625264 0.439475 0.560525
8
0.0 1.0 0.0 1.0 1.0 0.0 0.0 1.0
8
0.0 1.0 0.0 1.0 1.0 0.0 1.0 0.0
8
0.0 1.0 1.0 0.0 1.0 0.0 1.0 0.0
8
0.0 1.0 0.0 1.0 0.0 1.0 1.0 0.0
8
0.0 1.0 1.0 0.0 1.0 0.0 1.0 0.0
8
1.0 0.0 0.0 1.0 1.0 0.0 0.0 1.0
8
1.0 0.0 0.0 1.0 1.0 0.0 1.0 0.0
8
1.0 0.0 1.0 0.0 0.0 1.0 1.0 0.0
8
1.0 0.0 0.0 1.0 0.0 1.0 1.0 0.0
8
0.0 1.0 1.0 0.0 0.0 1.0 1.0 0.0
8
1.0 0.0 1.0 0.0 1.0 0.0 0.0 1.0
8
0.0 1.0 1.0 0.0 1.0 0.0 1.0 0.0
8
0.0 1.0 0.0 1.0 0.0 1.0 1.0 0.0
8
0.0 1.0 0.0 1.0 1.0 0.0 0.0 1.0
8
1.0 0.0 1.0 0.0 0.0 1.0 1.0 0.0
4
0.0 1.0 1.0 0.0
8
0.0 1.0 0.0 1.0 1.0 0.0 1.0 0.0
8
0.0 1.0 0.0 1.0 0.0 1.0 1.0 0.0
8
0.0 1.0 0.0 1.0 1.0 0.0 0.0 1.0
8
0.0 1.0 0.0 1.0 1.0 0.0 0.0 1.0
8
1.0 0.0 1.0 0.0 1.0 0.0 0.0 1.0
8
0.0 1.0 0.0 1.0 0.0 1.0 1.0 0.0
8
0.0509632 0.949037 0.389896 0.610104 0.102277 0.897723 0.319548 0.680452
8
1.0 0.0 1.0 0.0 0.0 1.0 1.0 0.0
8
1.0 0.0 0.0 1.0 1.0 0.0 1.0 0.0
8
1.0 0.0 1.0 0.0 0.0 1.0 1.0 0.0
8
0.0 1.0 1.0 0.0 1.0 0.0 1.0 0.0
8
1.0 0.0 1.0 0.0 1.0 0.0 0.0 1.0
8
1.0 0.0 1.0 0.0 0.0 1.0 0.0 1.0
8
1.0 0.0 1.0 0.0 1.0 0.0 0.0 1.0
8
1.0 0.0 0.0 1.0 1.0 0.0 0.0 1.0
8
1.0 0.0 0.0 1.0 0.0 1.0 0.0 1.0
8
0.488718 0.511282 0.941658 0.0583418 0.687294 0.312706 0.13474 0.86526
8
1.0 0.0 0.0 1.0 1.0 0.0 1.0 0.0
8
0.0 1.0 0.0 1.0 1.0 0.0 0.0 1.0
4
0.983452 0.0165479 0.277941 0.722059
8
1.0 0.0 1.0 0.0 0.0 1.0 1.0 0.0
8
0.650918 0.349082 0.817888 0.182112 0.532449 0.467551 0.0643384 0.935662
8
1.0 0.0 0.0 1.0 1.0 0.0 0.0 1.0
8
0.0 1.0 1.0 0.0 1.0 0.0 1.0 0.0
8
1.0 0.0 1.0 0.0 1.0 0.0 0.0 1.0
8
0.0 1.0 1.0 0.0 1.0 0.0 0.0 1.0
8
1.0 0.0 1.0 0.0 0.0 1.0 1.0 0.0
8
0.0 1.0 0.0 1.0 0.0 1.0 1.0 0.0
8
1.0 0.0 1.0 0.0 1.0 0.0 0.0 1.0
8
0.0 1.0 1.0 0.0 1.0 0.0 1.0 0.0
8
0.0 1.0 0.0 1.0 0.0 1.0 1.0 0.0
8
0.0 1.0 1.0 0.0 0.0 1.0 1.0 0.0
8
1.0 0.0 0.0 1.0 0.0 1.0 1.0 0.0
8
1.0 0.0 1.0 0.0 0.0 1.0 1.0 0.0
8
0.0 1.0 0.0 1.0 0.0 1.0 1.0 0.0
8
0.0 1.0 1.0 0.0 1.0 0.0 1.0 0.0
8
1.0 0.0 1.0 0.0 0.0 1.0 1.0 0.0
8
0.648396 0.351604 0.906206 0.0937939 0.407288 0.592712 0.321395 0.678605
8
1.0 0.0 1.0 0.0 0.0 1.0 0.0 1.0
4
1.0 0.0 0.0 1.0
8
0.0 1.0 0.0 1.0 1.0 0.0 0.0 1.0
8
0.0 1.0 1.0 0.0 1.0 0.0 1.0 0.0
8
0.0 1.0 0.0 1.0 1.0 0.0 1.0 0.0
8
1.0 0.0 0.0 1.0 1.0 0.0 0.0 1.0
8
0.0 1.0 1.0 0.0 1.0 0.0 1.0 0.0
8
1.0 0.0 0.0 1.0 0.0 1.0 0.0 1.0
8
0.0 1.0 0.0 1.0 1.0 0.0 0.0 1.0
8
0.0 1.0 1.0 0.0 0.0 1.0 0.0 1.0
8
0.0 1.0 0.0 1.0 1.0 0.0 0.0 1.0
8
1.0 0.0 0.0 1.0 1.0 0.0 1.0 0.0
8
1.0 0.0 1.0 0.0 1.0 0.0 0.0 1.0
8
1.0 0.0 0.0 1.0 0.0 1.0 1.0 0.0
8
1.0 0.0 0.0 1.0 1.0 0.0 1.0 0.0
8
0.0 1.0 1.0 0.0 1.0 0.0 0.0 1.0
8
1.0 0.0 0.0 1.0 0.0 1.0 1.0 0.0
8
0.0 1.0 0.0 1.0 0.0 1.0 1.0 0.0
8
0.0 1.0 0.0 1.0 1.0 0.0 0.0 1.0
8
1.0 0.0 1.0 0.0 0.0 1.0 1.0 0.0
8
0.0 1.0 0.0 1.0 1.0 0.0 0.0 1.0
4
1.0 0.0 0.0 1.0
8
0.0 1.0 1.0 0.0 1.0 0.0 0.0 1.0
8
0.707219 0.292781 0.109555 0.890445 0.950714 0.0492865 0.0250269 0.974973
8
0.0 1.0 1.0 0.0 0.0 1.0 1.0 0.0
8
1.0 0.0 1.0 0.0 1.0 0.0 0.0 1.0
8
0.0 1.0 1.0 0.0 0.0 1.0 0.0 1.0
8
1.0 0.0 1.0 0.0 0.0 1.0 0.0 1.0
8
1.0 0.0 1.0 0.0 1.0 0.0 0.0 1.0
8
0.714769 0.285231 0.0225893 0.977411 0.0413622 0.958638 0.665483 0.334517
8
0.0 1.0 1.0 0.0 1.0 0.0 0.0 1.0
8
0.0 1.0 1.0 0.0 1.0 0.0 0.0 1.0
8
1.0 0.0 0.0 1.0 1.0 0.0 1.0 0.0
8
1.0 0.0 0.0 1.0 1.0 0.0 1.0 0.0
8
1.0 0.0 0.0 1.0 0.0 1.0 0.0 1.0
8
1.0 0.0 0.0 1.0 1.0 0.0 1.0 0.0
8
0.0 1.0 0.0 1.0 1.0 0.0 0.0 1.0
8
1.0 0.0 0.0 1.0 1.0 0.0 1.0 0.0
8
1.0 0.0 0.0 1.0 0.0 1.0 0.0 1.0
8
0.0 1.0 0.0 1.0 0.0 1.0 1.0 0.0
8
0.0 1.0 1.0 0.0 0.0 1.0 1.0 0.0
4
1.0 0.0 0.0 1.0
8
0.0 1.0 0.0 1.0 1.0 0.0 0.0 1.0
8
0.0 1.0 0.0 1.0 1.0 0.0 0.0 1.0
8
1.0 0.0 1.0 0.0 0.0 1.0 1.0 0.0
8
0.0 1.0 1.0 0.0 0.0 1.0 0.0 1.0
8
0.0 1.0 0.0 1.0 1.0 0.0 1.0 0.0
8
1.0 0.0 1.0 0.0 0.0 1.0 1.0 0.0
8
0.0 1.0 1.0 0.0 1.0 0.0 1.0 0.0
8
0.0 1.0 0.0 1.0 0.0 1.0 1.0 0.0
8
0.0 1.0 0.0 1.0 1.0 0.0 0.0 1.0
8
1.0 0.0 1.0 0.0 1.0 0.0 0.0 1.0
8
1.0 0.0 1.0 0.0 1.0 0.0 0.0 1.0
8
0.0 1.0 0.0 1.0 0.0 1.0 1.0 0.0
8
0.0 1.0 1.0 0.0 1.0 0.0 0.0 1.0
8
1.0 0.0 0.0 1.0 0.0 1.0 1.0 0.0
8
1.0 0.0 0.0 1.0 1.0 0.0 1.0 0.0
8
0.0 1.0 1.0 0.0 1.0 0.0 1.0 0.0
8
0.0 1.0 1.0 0.0 1.0 0.0 1.0 0.0
8
1.0 0.0 1.0 0.0 0.0 1.0 1.0 0.0
8
0.0 1.0 0.0 1.0 1.0 0.0 0.0 1.0
4
0.0 1.0 1.0 0.0
8
0.645713 0.354287 0.537721 0.462279 0.272197 0.727803 0.89852 0.10148
8
0.0 1.0 1.0 0.0 0.0 1.0 0.0 1.0
8
1.0 0.0 0.0 1.0 1.0 0.0 0.0 1.0
8
0.0 1.0 1.0 0.0 1.0 0.0 0.0 1.0
8
0.0 1.0 0.0 1.0 1.0 0.0 0.0 1.0
8
1.0 0.0 1.0 0.0 0.0 1.0 1.0 0.0
8
1.0 0.0 1.0 0.0 0.0 1.0 1.0 0.0
8
0.0 1.0 1.0 0.0 0.0 1.0 0.0 1.0
8
0.0 1.0 1.0 0.0 0.0 1.0 0.0 1.0
8
1.0 0.0 0.0 1.0 1.0 0.0 0.0 1.0
8
0.872192 0.127808 0.734925 0.265075 0.339804 0.660196 0.373976 0.626024
8
0.0 1.0 0.0 1.0 1.0 0.0 1.0 0.0
8
1.0 0.0 0.0 1.0 0.0 1.0 0.0 1.0
8
1.0 0.0 1.0 0.0 0.0 1.0 0.0 1.0
8
1.0 0.0 0.0 1.0 1.0 0.0 0.0 1.0
8
0.0 1.0 0.0 1.0 0.0 1.0 1.0 0.0
8
1.0 0.0 1.0 0.0 0.0 1.0 1.0 0.0
8
0.0 1.0 1.0 0.0 1.0 0.0 0.0 1.0
8
1.0 0.0 0.0 1.0 1.0 0.0 1.0 0.0
4
1.0 0.0 0.0 1.0
8
0.0 1.0 0.0 1.0 0.0 1.0 1.0 0.0
8
1.0 0.0 0.0 1.0 1.0 0.0 0.0 1.0
8
1.0 0.0 1.0 0.0 0.0 1.0 1.0 0.0
8
1.0 0.0 1.0 0.0 1.0 0.0 0.0 1.0
8
0.0 1.0 0.0 1.0 0.0 1.0 1.0 0.0
8
0.0 1.0 1.0 0.0 1.0 0.0 1.0 0.0
8
1.0 0.0 1.0 0.0 0.0 1.0 0.0 1.0
8
1.0 0.0 0.0 1.0 1.0 0.0 1.0 0.0
8
1.0 0.0 0.0 1.0 0.0 1.0 0.0 1.0
8
1.0 0.0 1.0 0.0 0.0 1.0 0.0 1.0
8
1.0 0.0 0.0 1.0 1.0 0.0 0.0 1.0
8
0.0 1.0 0.0 1.0 1.0 0.0 1.0 0.0
8
0.0 1.0 1.0 0.0 1.0 0.0 0.0 1.0
8
1.0 0.0 1.0 0.0 0.0 1.0 1.0 0.0
8
1.0 0.0 0.0 1.0 1.0 0.0 1.0 0.0
8
0.0 1.0 1.0 0.0 1.0 0.0 1.0 0.0
8
1.0 0.0 0.0 1.0 0.0 1.0 0.0 1.0
8
0.136953 0.863047 0.0649773 0.935023 0.956315 0.0436852 0.332003 0.667997
8
0.0 1.0 1.0 0.0 1.0 0.0 1.0 0.0
4
0.0 1.0 1.0 0.0
8
1.0 0.0 0.0 1.0 1.0 0.0 0.0 1.0
8
1.0 0.0 0.0 1.0 1.0 0.0 1.0 0.0
8
0.0 1.0 1.0 0.0 1.0 0.0 1.0 0.0
8
0.0 1.0 1.0 0.0 0.0 1.0 0.0 1.0
8
1.0 0.0 1.0 0.0 0.0 1.0 1.0 0.0
8
1.0 0.0 0.0 1.0 0.0 1.0 0.0 1.0
8
1.0 0.0 1.0 0.0 0.0 1.0 0.0 1.0
8
1.0 0.0 0.0 1.0 1.0 0.0 1.0 0.0
8
1.0 0.0 0.0 1.0 0.0 1.0 1.0 0.0
8
0.0 1.0 0.0 1.0 1.0 0.0 0.0 1.0
8
1.0 0.0 0.0 1.0 0.0 1.0 0.0 1.0
8
0.0 1.0 0.0 1.0 0.0 1.0 1.0 0.0
8
0.0 1.0 0.0 1.0 1.0 0.0 0.0 1.0
8
0.692251 0.307749 0.368146 0.631854 0.846133 0.153867 0.510221 0.489779
8
0.589043 0.410957 0.971004 0.0289959 0.293504 0.706496 0.226268 0.773732
8
0.0 1.0 1.0 0.0 0.0 1.0 1.0 0.0
8
1.0 0.0 0.0 1.0 1.0 0.0 0.0 1.0
8
0.0 1.0 0.0 1.0 1.0 0.0 0.0 1.0
8
0.0 1.0 0.0 1.0 1.0 0.0 1.0 0.0
4
0.0 1.0 1.0 0.0
8
0.0 1.0 0.0 1.0 1.0 0.0 1.0 0.0
8
1.0 0.0 1.0 0.0 0.0 1.0 0.0 1.0
8
1.0 0.0 0.0 1.0 1.0 0.0 0.0 1.0
8
1.0 0.0 1.0 0.0 0.0 1.0 0.0 1.0
8
1.0 0.0 0.0 1.0 0.0 1.0 0.0 1.0
8
1.0 0.0 0.0 1.0 1.0 0.0 1.0 0.0
8
1.0 0.0 1.0 0.0 1.0 0.0 0.0 1.0
8
0.0 1.0 0.0 1.0 1.0 0.0 1.0 0.0
8
0.0 1.0 1.0 0.0 1.0 0.0 0.0 1.0
8
0.0 1.0 1.0 0.0 1.0 0.0 1.0 0.0
8
0.0 1.0 1.0 0.0 1.0 0.0 0.0 1.0
8
1.0 0.0 1.0 0.0 1.0 0.0 0.0 1.0
8
0.414818 0.585182 0.333454 0.666546 0.863833 0.136167 0.656587 0.343413
8
1.0 0.0 1.0 0.0 0.0 1.0 0.0 1.0
8
0.0 1.0 0.0 1.0 0.0 1.0 1.0 0.0
8
1.0 0.0 0.0 1.0 0.0 1.0 1.0 0.0
8
1.0 0.0 1.0 0.0 0.0 1.0 0.0 1.0
8
1.0 0.0 1.0 0.0 0.0 1.0 1.0 0.0
8
1.0 0.0 0.0 1.0 0.0 1.0 0.0 1.0
4
0.0 1.0 1.0 0.0
8
1.0 0.0 1.0 0.0 0.0 1.0 1.0 0.0
8
0.0 1.0 1.0 0.0 1.0 0.0 1.0 0.0
8
1.0 0.0 1.0 0.0 0.0 1.0 0.0 1.0
8
1.0 0.0 0.0 1.0 0.0 1.0 0.0 1.0
8
1.0 0.0 0.0 1.0 0.0 1.0 1.0 0.0
8
1.0 0.0 1.0 0.0 0.0 1.0 0.0 1.0
8
1.0 0.0 0.0 1.0 1.0 0.0 1.0 0.0
8
0.0 1.0 0.0 1.0 1.0 0.0 1.0 0.0
8
0.75264 0.24736 0.569219 0.430781 0.564284 0.435716 0.218576 0.781424
8
0.0 1.0 0.0 1.0 1.0 0.0 0.0 1.0
8
0.0923811 0.907619 0.0556769 0.944323 0.842875 0.157125 0.364182 0.635818
8
0.0 1.0 1.0 0.0 0.0 1.0 0.0 1.0
8
0.350341 0.649659 0.0634732 0.936527 0.814932 0.185068 0.645008 0.354992
8
0.762272 0.237728 0.0788468 0.921153 0.760301 0.239699 0.878893 0.121107
8
0.0 1.0 1.0 0.0 0.0 1.0 0.0 1.0
8
0.0 1.0 1.0 0.0 1.0 0.0 1.0 0.0
8
0.0 1.0 0.0 1.0 1.0 0.0 1.0 0.0
8
1.0 0.0 0.0 1.0 0.0 1.0 1.0 0.0
8
0.0 1.0 0.0 1.0 0.0 1.0 1.0 0.0
4
0.0 1.0 1.0 0.0
8
1.0 0.0 1.0 0.0 0.0 1.0 1.0 0.0
8
0.0 1.0 0.0 1.0 1.0 0.0 1.0 0.0
8
0.0 1.0 0.0 1.0 0.0 1.0 1.0 0.0
8
1.0 0.0 0.0 1.0 1.0 0.0 0.0 1.0
8
1.0 0.0 1.0 0.0 0.0 1.0 1.0 0.0
8
0.0 1.0 1.0 0.0 1.0 0.0 0.0 1.0
8
0.0 1.0 0.0 1.0 1.0 0.0 0.0 1.0
8
0.0 1.0 0.0 1.0 0.0 1.0 1.0 0.0
8
0.0 1.0 1.0 0.0 1.0 0.0 1.0 0.0
8
0.0 1.0 0.0 1.0 0.0 1.0 1.0 0.0
8
1.0 0.0 0.0 1.0 1.0 0.0 0.0 1.0
8
0.0 1.0 0.0 1.0 1.0 0.0 1.0 0.0
8
0.0 1.0 0.0 1.0 1.0 0.0 0.0 1.0
8
1.0 0.0 0.0 1.0 0.0 1.0 1.0 0.0
8
1.0 0.0 0.0 1.0 0.0 1.0 0.0 1.0
8
1.0 0.0 0.0 1.0 1.0 0.0 1.0 0.0
8
0.0 1.0 0.0 1.0 0.0 1.0 1.0 0.0
8
0.0 1.0 0.0 1.0 1.0 0.0 0.0 1.0
8
0.550046 0.449954 0.785269 0.214731 0.412504 0.587496 0.708559 0.291441
4
1.0 0.0 0.0 1.0
8
0.0 1.0 1.0 0.0 0.0 1.0 1.0 0.0
8
0.0 1.0 1.0 0.0 0.0 1.0 1.0 0.0
8
1.0 0.0 1.0 0.0 1.0 0.0 0.0 1.0
8
1.0 0.0 0.0 1.0 0.0 1.0 0.0 1.0
8
0.695286 0.304714 0.161187 0.838813 0.0633057 0.936694 0.630001 0.369999
8
1.0 0.0 1.0 0.0 0.0 1.0 0.0 1.0
8
0.0 1.0 0.0 1.0 1.0 0.0 0.0 1.0
8
0.0 1.0 1.0 0.0 1.0 0.0 0.0 1.0
8
0.0 1.0 1.0 0.0 1.0 0.0 1.0 0.0
8
1.0 0.0 1.0 0.0 0.0 1.0 1.0 0.0
8
1.0 0.0 0.0 1.0 1.0 0.0 1.0 0.0
8
1.0 0.0 0.0 1.0 1.0 0.0 1.0 0.0
8
1.0 0.0 1.0 0.0 0.0 1.0 0.0 1.0
8
1.0 0.0 0.0 1.0 1.0 0.0 0.0 1.0
8
1.0 0.0 1.0 0.0 1.0 0.0 0.0 1.0
8
1.0 0.0 1.0 0.0 1.0 0.0 0.0 1.0
8
0.0 1.0 1.0 0.0 0.0 1.0 1.0 0.0
8
1.0 0.0 0.0 1.0 0.0 1.0 0.0 1.0
8
0.0 1.0 0.0 1.0 1.0 0.0 0.0 1.0